; Options: -in -smt2
(set-option :produce-unsat-assumptions true)

(declare-fun start!2833 () Bool)

(assert start!2833)

(declare-fun b!15757 () Bool)

(declare-fun res!12317 () Bool)

(declare-fun e!8796 () Bool)

(assert (=> b!15757 (=> (not res!12317) (not e!8796))))

(declare-datatypes ((array!1268 0))(
  ( (array!1269 (arr!557 (Array (_ BitVec 32) (_ BitVec 32))) (size!557 (_ BitVec 32))) )
))
(declare-fun iq!146 () array!1268)

(declare-fun iqInv!0 (array!1268) Bool)

(assert (=> b!15757 (= res!12317 (iqInv!0 iq!146))))

(declare-fun b!15756 () Bool)

(declare-fun res!12315 () Bool)

(assert (=> b!15756 (=> (not res!12315) (not e!8796))))

(declare-fun z!100 () (_ FloatingPoint 11 53))

(declare-fun j!78 () (_ BitVec 32))

(declare-fun jz!49 () (_ BitVec 32))

(assert (=> b!15756 (= res!12315 (and (bvsle #b00000000000000000000000000000000 j!78) (bvsle j!78 jz!49) (fp.leq (fp #b0 #b00000000000 #b0000000000000000000000000000000000000000000000000000) z!100) (fp.leq z!100 (fp #b0 #b10000110001 #b0100000000000000000000010011111111111111111111111100))))))

(declare-fun b!15755 () Bool)

(declare-fun res!12318 () Bool)

(assert (=> b!15755 (=> (not res!12318) (not e!8796))))

(declare-datatypes ((array!1270 0))(
  ( (array!1271 (arr!558 (Array (_ BitVec 32) (_ FloatingPoint 11 53))) (size!558 (_ BitVec 32))) )
))
(declare-fun q!79 () array!1270)

(declare-fun qInv!0 (array!1270) Bool)

(assert (=> b!15755 (= res!12318 (qInv!0 q!79))))

(declare-fun res!12316 () Bool)

(assert (=> start!2833 (=> (not res!12316) (not e!8796))))

(assert (=> start!2833 (= res!12316 (and (bvsle #b00000000000000000000000000000010 jz!49) (bvslt jz!49 #b00000000000000000000000000010011)))))

(assert (=> start!2833 e!8796))

(assert (=> start!2833 true))

(declare-fun array_inv!505 (array!1268) Bool)

(assert (=> start!2833 (array_inv!505 iq!146)))

(declare-fun array_inv!506 (array!1270) Bool)

(assert (=> start!2833 (array_inv!506 q!79)))

(declare-fun b!15758 () Bool)

(assert (=> b!15758 (= e!8796 (and (bvsgt j!78 #b00000000000000000000000000000000) (not (= (bvand jz!49 #b10000000000000000000000000000000) (bvand j!78 #b10000000000000000000000000000000))) (not (= (bvand jz!49 #b10000000000000000000000000000000) (bvand (bvsub jz!49 j!78) #b10000000000000000000000000000000)))))))

(assert (= (and start!2833 res!12316) b!15755))

(assert (= (and b!15755 res!12318) b!15756))

(assert (= (and b!15756 res!12315) b!15757))

(assert (= (and b!15757 res!12317) b!15758))

(declare-fun m!23847 () Bool)

(assert (=> b!15757 m!23847))

(declare-fun m!23849 () Bool)

(assert (=> b!15755 m!23849))

(declare-fun m!23851 () Bool)

(assert (=> start!2833 m!23851))

(declare-fun m!23853 () Bool)

(assert (=> start!2833 m!23853))

(check-sat (not b!15757) (not start!2833) (not b!15755))
(check-sat)
